HUN,8,6,224
5,28,1,9,0,12,4,5,2,5,3,12
4,4,1,5,3,29,2,11,0,7,5,29
1,2,0,27,4,13,5,7,3,5,2,22
3,28,1,14,5,22,2,12,0,3,4,2
2,12,5,3,4,15,1,3,3,20,0,14
5,4,3,11,1,27,4,2,2,16,0,21
4,12,5,16,3,4,1,23,2,23,0,20
5,18,3,15,2,28,1,7,0,14,4,7
